This is Ipopt version 3.12.13, running with linear solver ma57.

Number of nonzeros in equality constraint Jacobian...:        0
Number of nonzeros in inequality constraint Jacobian.:    21744
Number of nonzeros in Lagrangian Hessian.............:       21

Total number of variables............................:        6
                     variables with only lower bounds:        0
                variables with lower and upper bounds:        6
                     variables with only upper bounds:        0
Total number of equality constraints.................:        0
Total number of inequality constraints...............:     3624
        inequality constraints with only lower bounds:        0
   inequality constraints with lower and upper bounds:        0
        inequality constraints with only upper bounds:     3624

iter    objective    inf_pr   inf_du lg(mu)  ||d||  lg(rg) alpha_du alpha_pr  ls
   0  1.7268848e-02 0.00e+00 7.09e+00   0.0 0.00e+00    -  0.00e+00 0.00e+00   0
   1  1.7229599e-02 0.00e+00 1.94e-02  -5.5 1.42e-03    -  9.81e-01 1.00e+00f  1
   2  1.5687208e-02 0.00e+00 5.70e-03  -7.2 5.92e-02    -  7.09e-01 1.00e+00f  1
   3  1.5718125e-02 0.00e+00 1.25e-02  -3.8 9.97e-02    -  6.18e-01 1.25e-01h  1
   4  1.4635847e-02 0.00e+00 1.11e-03  -4.3 7.41e-02    -  7.99e-01 1.00e+00h  1
   5  1.4568178e-02 0.00e+00 2.42e-04  -4.5 2.87e-02    -  9.79e-01 1.00e+00h  1
   6  1.4495548e-02 0.00e+00 1.28e-05  -4.7 1.45e-02    -  9.98e-01 1.00e+00h  1
   7  1.3533171e-02 0.00e+00 5.35e-05  -5.1 9.04e-02    -  1.00e+00 1.00e+00h  1
   8  1.3003720e-02 0.00e+00 5.10e-04  -5.9 6.86e-02    -  1.00e+00 9.98e-01h  1
   9  1.3023006e-02 0.00e+00 6.64e-04  -6.3 1.91e-02    -  9.79e-01 1.00e+00h  1
iter    objective    inf_pr   inf_du lg(mu)  ||d||  lg(rg) alpha_du alpha_pr  ls
  10  1.2999361e-02 0.00e+00 1.80e-07  -7.1 3.74e-03    -  1.00e+00 1.00e+00h  1

Number of Iterations....: 10

                                   (scaled)                 (unscaled)
Objective...............:   1.2999361330239559e-02    1.2999361330239559e-02
Dual infeasibility......:   1.8012198231419765e-07    1.8012198231419765e-07
Constraint violation....:   0.0000000000000000e+00    0.0000000000000000e+00
Complementarity.........:   1.0817149047717350e-07    1.0817149047717350e-07
Overall NLP error.......:   1.8012198231419765e-07    1.8012198231419765e-07


Number of objective function evaluations             = 11
Number of objective gradient evaluations             = 11
Number of equality constraint evaluations            = 0
Number of inequality constraint evaluations          = 11
Number of equality constraint Jacobian evaluations   = 0
Number of inequality constraint Jacobian evaluations = 11
Number of Lagrangian Hessian evaluations             = 10
Total CPU secs in IPOPT (w/o function evaluations)   =      0.034
Total CPU secs in NLP function evaluations           =      0.016

EXIT: Optimal Solution Found.
